Minimize
 obj: 0 X_0_1
Subject To
 out_0:
  + 1 X_0_1 + 1 X_0_2 + 1 X_0_3 + 1 X_0_4 + 1 X_0_5 + 1 X_0_6 + 1 X_0_7 + 1 X_0_8
  + 1 X_0_9 + 1 X_0_10 + 1 X_0_11 + 1 X_0_12 + 1 X_0_13 + 1 X_0_14
  = 1
 in_0:
  + 1 X_1_0 + 1 X_2_0 + 1 X_3_0 + 1 X_4_0 + 1 X_5_0 + 1 X_6_0 + 1 X_7_0 + 1 X_8_0
  + 1 X_9_0 + 1 X_10_0 + 1 X_11_0 + 1 X_12_0 + 1 X_13_0 + 1 X_14_0
  = 1
 out_1:
  + 1 X_1_0 + 1 X_1_2 + 1 X_1_3 + 1 X_1_4 + 1 X_1_5 + 1 X_1_6 + 1 X_1_7 + 1 X_1_8
  + 1 X_1_9 + 1 X_1_10 + 1 X_1_11 + 1 X_1_12 + 1 X_1_13 + 1 X_1_14
  = 1
 in_1:
  + 1 X_0_1 + 1 X_2_1 + 1 X_3_1 + 1 X_4_1 + 1 X_5_1 + 1 X_6_1 + 1 X_7_1 + 1 X_8_1
  + 1 X_9_1 + 1 X_10_1 + 1 X_11_1 + 1 X_12_1 + 1 X_13_1 + 1 X_14_1
  = 1
 out_2:
  + 1 X_2_0 + 1 X_2_1 + 1 X_2_3 + 1 X_2_4 + 1 X_2_5 + 1 X_2_6 + 1 X_2_7 + 1 X_2_8
  + 1 X_2_9 + 1 X_2_10 + 1 X_2_11 + 1 X_2_12 + 1 X_2_13 + 1 X_2_14
  = 1
 in_2:
  + 1 X_0_2 + 1 X_1_2 + 1 X_3_2 + 1 X_4_2 + 1 X_5_2 + 1 X_6_2 + 1 X_7_2 + 1 X_8_2
  + 1 X_9_2 + 1 X_10_2 + 1 X_11_2 + 1 X_12_2 + 1 X_13_2 + 1 X_14_2
  = 1
 out_3:
  + 1 X_3_0 + 1 X_3_1 + 1 X_3_2 + 1 X_3_4 + 1 X_3_5 + 1 X_3_6 + 1 X_3_7 + 1 X_3_8
  + 1 X_3_9 + 1 X_3_10 + 1 X_3_11 + 1 X_3_12 + 1 X_3_13 + 1 X_3_14
  = 1
 in_3:
  + 1 X_0_3 + 1 X_1_3 + 1 X_2_3 + 1 X_4_3 + 1 X_5_3 + 1 X_6_3 + 1 X_7_3 + 1 X_8_3
  + 1 X_9_3 + 1 X_10_3 + 1 X_11_3 + 1 X_12_3 + 1 X_13_3 + 1 X_14_3
  = 1
 out_4:
  + 1 X_4_0 + 1 X_4_1 + 1 X_4_2 + 1 X_4_3 + 1 X_4_5 + 1 X_4_6 + 1 X_4_7 + 1 X_4_8
  + 1 X_4_9 + 1 X_4_10 + 1 X_4_11 + 1 X_4_12 + 1 X_4_13 + 1 X_4_14
  = 1
 in_4:
  + 1 X_0_4 + 1 X_1_4 + 1 X_2_4 + 1 X_3_4 + 1 X_5_4 + 1 X_6_4 + 1 X_7_4 + 1 X_8_4
  + 1 X_9_4 + 1 X_10_4 + 1 X_11_4 + 1 X_12_4 + 1 X_13_4 + 1 X_14_4
  = 1
 out_5:
  + 1 X_5_0 + 1 X_5_1 + 1 X_5_2 + 1 X_5_3 + 1 X_5_4 + 1 X_5_6 + 1 X_5_7 + 1 X_5_8
  + 1 X_5_9 + 1 X_5_10 + 1 X_5_11 + 1 X_5_12 + 1 X_5_13 + 1 X_5_14
  = 1
 in_5:
  + 1 X_0_5 + 1 X_1_5 + 1 X_2_5 + 1 X_3_5 + 1 X_4_5 + 1 X_6_5 + 1 X_7_5 + 1 X_8_5
  + 1 X_9_5 + 1 X_10_5 + 1 X_11_5 + 1 X_12_5 + 1 X_13_5 + 1 X_14_5
  = 1
 out_6:
  + 1 X_6_0 + 1 X_6_1 + 1 X_6_2 + 1 X_6_3 + 1 X_6_4 + 1 X_6_5 + 1 X_6_7 + 1 X_6_8
  + 1 X_6_9 + 1 X_6_10 + 1 X_6_11 + 1 X_6_12 + 1 X_6_13 + 1 X_6_14
  = 1
 in_6:
  + 1 X_0_6 + 1 X_1_6 + 1 X_2_6 + 1 X_3_6 + 1 X_4_6 + 1 X_5_6 + 1 X_7_6 + 1 X_8_6
  + 1 X_9_6 + 1 X_10_6 + 1 X_11_6 + 1 X_12_6 + 1 X_13_6 + 1 X_14_6
  = 1
 out_7:
  + 1 X_7_0 + 1 X_7_1 + 1 X_7_2 + 1 X_7_3 + 1 X_7_4 + 1 X_7_5 + 1 X_7_6 + 1 X_7_8
  + 1 X_7_9 + 1 X_7_10 + 1 X_7_11 + 1 X_7_12 + 1 X_7_13 + 1 X_7_14
  = 1
 in_7:
  + 1 X_0_7 + 1 X_1_7 + 1 X_2_7 + 1 X_3_7 + 1 X_4_7 + 1 X_5_7 + 1 X_6_7 + 1 X_8_7
  + 1 X_9_7 + 1 X_10_7 + 1 X_11_7 + 1 X_12_7 + 1 X_13_7 + 1 X_14_7
  = 1
 out_8:
  + 1 X_8_0 + 1 X_8_1 + 1 X_8_2 + 1 X_8_3 + 1 X_8_4 + 1 X_8_5 + 1 X_8_6 + 1 X_8_7
  + 1 X_8_9 + 1 X_8_10 + 1 X_8_11 + 1 X_8_12 + 1 X_8_13 + 1 X_8_14
  = 1
 in_8:
  + 1 X_0_8 + 1 X_1_8 + 1 X_2_8 + 1 X_3_8 + 1 X_4_8 + 1 X_5_8 + 1 X_6_8 + 1 X_7_8
  + 1 X_9_8 + 1 X_10_8 + 1 X_11_8 + 1 X_12_8 + 1 X_13_8 + 1 X_14_8
  = 1
 out_9:
  + 1 X_9_0 + 1 X_9_1 + 1 X_9_2 + 1 X_9_3 + 1 X_9_4 + 1 X_9_5 + 1 X_9_6 + 1 X_9_7
  + 1 X_9_8 + 1 X_9_10 + 1 X_9_11 + 1 X_9_12 + 1 X_9_13 + 1 X_9_14
  = 1
 in_9:
  + 1 X_0_9 + 1 X_1_9 + 1 X_2_9 + 1 X_3_9 + 1 X_4_9 + 1 X_5_9 + 1 X_6_9 + 1 X_7_9
  + 1 X_8_9 + 1 X_10_9 + 1 X_11_9 + 1 X_12_9 + 1 X_13_9 + 1 X_14_9
  = 1
 out_10:
  + 1 X_10_0 + 1 X_10_1 + 1 X_10_2 + 1 X_10_3 + 1 X_10_4 + 1 X_10_5 + 1 X_10_6 + 1 X_10_7
  + 1 X_10_8 + 1 X_10_9 + 1 X_10_11 + 1 X_10_12 + 1 X_10_13 + 1 X_10_14
  = 1
 in_10:
  + 1 X_0_10 + 1 X_1_10 + 1 X_2_10 + 1 X_3_10 + 1 X_4_10 + 1 X_5_10 + 1 X_6_10 + 1 X_7_10
  + 1 X_8_10 + 1 X_9_10 + 1 X_11_10 + 1 X_12_10 + 1 X_13_10 + 1 X_14_10
  = 1
 out_11:
  + 1 X_11_0 + 1 X_11_1 + 1 X_11_2 + 1 X_11_3 + 1 X_11_4 + 1 X_11_5 + 1 X_11_6 + 1 X_11_7
  + 1 X_11_8 + 1 X_11_9 + 1 X_11_10 + 1 X_11_12 + 1 X_11_13 + 1 X_11_14
  = 1
 in_11:
  + 1 X_0_11 + 1 X_1_11 + 1 X_2_11 + 1 X_3_11 + 1 X_4_11 + 1 X_5_11 + 1 X_6_11 + 1 X_7_11
  + 1 X_8_11 + 1 X_9_11 + 1 X_10_11 + 1 X_12_11 + 1 X_13_11 + 1 X_14_11
  = 1
 out_12:
  + 1 X_12_0 + 1 X_12_1 + 1 X_12_2 + 1 X_12_3 + 1 X_12_4 + 1 X_12_5 + 1 X_12_6 + 1 X_12_7
  + 1 X_12_8 + 1 X_12_9 + 1 X_12_10 + 1 X_12_11 + 1 X_12_13 + 1 X_12_14
  = 1
 in_12:
  + 1 X_0_12 + 1 X_1_12 + 1 X_2_12 + 1 X_3_12 + 1 X_4_12 + 1 X_5_12 + 1 X_6_12 + 1 X_7_12
  + 1 X_8_12 + 1 X_9_12 + 1 X_10_12 + 1 X_11_12 + 1 X_13_12 + 1 X_14_12
  = 1
 out_13:
  + 1 X_13_0 + 1 X_13_1 + 1 X_13_2 + 1 X_13_3 + 1 X_13_4 + 1 X_13_5 + 1 X_13_6 + 1 X_13_7
  + 1 X_13_8 + 1 X_13_9 + 1 X_13_10 + 1 X_13_11 + 1 X_13_12 + 1 X_13_14
  = 1
 in_13:
  + 1 X_0_13 + 1 X_1_13 + 1 X_2_13 + 1 X_3_13 + 1 X_4_13 + 1 X_5_13 + 1 X_6_13 + 1 X_7_13
  + 1 X_8_13 + 1 X_9_13 + 1 X_10_13 + 1 X_11_13 + 1 X_12_13 + 1 X_14_13
  = 1
 out_14:
  + 1 X_14_0 + 1 X_14_1 + 1 X_14_2 + 1 X_14_3 + 1 X_14_4 + 1 X_14_5 + 1 X_14_6 + 1 X_14_7
  + 1 X_14_8 + 1 X_14_9 + 1 X_14_10 + 1 X_14_11 + 1 X_14_12 + 1 X_14_13
  = 1
 in_14:
  + 1 X_0_14 + 1 X_1_14 + 1 X_2_14 + 1 X_3_14 + 1 X_4_14 + 1 X_5_14 + 1 X_6_14 + 1 X_7_14
  + 1 X_8_14 + 1 X_9_14 + 1 X_10_14 + 1 X_11_14 + 1 X_12_14 + 1 X_13_14
  = 1
 mtz_1_2:
  + 1 U1 - 1 U2 + 14 X_1_2
  <= 13
 mtz_1_3:
  + 1 U1 - 1 U3 + 14 X_1_3
  <= 13
 mtz_1_4:
  + 1 U1 - 1 U4 + 14 X_1_4
  <= 13
 mtz_1_5:
  + 1 U1 - 1 U5 + 14 X_1_5
  <= 13
 mtz_1_6:
  + 1 U1 - 1 U6 + 14 X_1_6
  <= 13
 mtz_1_7:
  + 1 U1 - 1 U7 + 14 X_1_7
  <= 13
 mtz_1_8:
  + 1 U1 - 1 U8 + 14 X_1_8
  <= 13
 mtz_1_9:
  + 1 U1 - 1 U9 + 14 X_1_9
  <= 13
 mtz_1_10:
  + 1 U1 - 1 U10 + 14 X_1_10
  <= 13
 mtz_1_11:
  + 1 U1 - 1 U11 + 14 X_1_11
  <= 13
 mtz_1_12:
  + 1 U1 - 1 U12 + 14 X_1_12
  <= 13
 mtz_1_13:
  + 1 U1 - 1 U13 + 14 X_1_13
  <= 13
 mtz_1_14:
  + 1 U1 - 1 U14 + 14 X_1_14
  <= 13
 mtz_2_1:
  + 1 U2 - 1 U1 + 14 X_2_1
  <= 13
 mtz_2_3:
  + 1 U2 - 1 U3 + 14 X_2_3
  <= 13
 mtz_2_4:
  + 1 U2 - 1 U4 + 14 X_2_4
  <= 13
 mtz_2_5:
  + 1 U2 - 1 U5 + 14 X_2_5
  <= 13
 mtz_2_6:
  + 1 U2 - 1 U6 + 14 X_2_6
  <= 13
 mtz_2_7:
  + 1 U2 - 1 U7 + 14 X_2_7
  <= 13
 mtz_2_8:
  + 1 U2 - 1 U8 + 14 X_2_8
  <= 13
 mtz_2_9:
  + 1 U2 - 1 U9 + 14 X_2_9
  <= 13
 mtz_2_10:
  + 1 U2 - 1 U10 + 14 X_2_10
  <= 13
 mtz_2_11:
  + 1 U2 - 1 U11 + 14 X_2_11
  <= 13
 mtz_2_12:
  + 1 U2 - 1 U12 + 14 X_2_12
  <= 13
 mtz_2_13:
  + 1 U2 - 1 U13 + 14 X_2_13
  <= 13
 mtz_2_14:
  + 1 U2 - 1 U14 + 14 X_2_14
  <= 13
 mtz_3_1:
  + 1 U3 - 1 U1 + 14 X_3_1
  <= 13
 mtz_3_2:
  + 1 U3 - 1 U2 + 14 X_3_2
  <= 13
 mtz_3_4:
  + 1 U3 - 1 U4 + 14 X_3_4
  <= 13
 mtz_3_5:
  + 1 U3 - 1 U5 + 14 X_3_5
  <= 13
 mtz_3_6:
  + 1 U3 - 1 U6 + 14 X_3_6
  <= 13
 mtz_3_7:
  + 1 U3 - 1 U7 + 14 X_3_7
  <= 13
 mtz_3_8:
  + 1 U3 - 1 U8 + 14 X_3_8
  <= 13
 mtz_3_9:
  + 1 U3 - 1 U9 + 14 X_3_9
  <= 13
 mtz_3_10:
  + 1 U3 - 1 U10 + 14 X_3_10
  <= 13
 mtz_3_11:
  + 1 U3 - 1 U11 + 14 X_3_11
  <= 13
 mtz_3_12:
  + 1 U3 - 1 U12 + 14 X_3_12
  <= 13
 mtz_3_13:
  + 1 U3 - 1 U13 + 14 X_3_13
  <= 13
 mtz_3_14:
  + 1 U3 - 1 U14 + 14 X_3_14
  <= 13
 mtz_4_1:
  + 1 U4 - 1 U1 + 14 X_4_1
  <= 13
 mtz_4_2:
  + 1 U4 - 1 U2 + 14 X_4_2
  <= 13
 mtz_4_3:
  + 1 U4 - 1 U3 + 14 X_4_3
  <= 13
 mtz_4_5:
  + 1 U4 - 1 U5 + 14 X_4_5
  <= 13
 mtz_4_6:
  + 1 U4 - 1 U6 + 14 X_4_6
  <= 13
 mtz_4_7:
  + 1 U4 - 1 U7 + 14 X_4_7
  <= 13
 mtz_4_8:
  + 1 U4 - 1 U8 + 14 X_4_8
  <= 13
 mtz_4_9:
  + 1 U4 - 1 U9 + 14 X_4_9
  <= 13
 mtz_4_10:
  + 1 U4 - 1 U10 + 14 X_4_10
  <= 13
 mtz_4_11:
  + 1 U4 - 1 U11 + 14 X_4_11
  <= 13
 mtz_4_12:
  + 1 U4 - 1 U12 + 14 X_4_12
  <= 13
 mtz_4_13:
  + 1 U4 - 1 U13 + 14 X_4_13
  <= 13
 mtz_4_14:
  + 1 U4 - 1 U14 + 14 X_4_14
  <= 13
 mtz_5_1:
  + 1 U5 - 1 U1 + 14 X_5_1
  <= 13
 mtz_5_2:
  + 1 U5 - 1 U2 + 14 X_5_2
  <= 13
 mtz_5_3:
  + 1 U5 - 1 U3 + 14 X_5_3
  <= 13
 mtz_5_4:
  + 1 U5 - 1 U4 + 14 X_5_4
  <= 13
 mtz_5_6:
  + 1 U5 - 1 U6 + 14 X_5_6
  <= 13
 mtz_5_7:
  + 1 U5 - 1 U7 + 14 X_5_7
  <= 13
 mtz_5_8:
  + 1 U5 - 1 U8 + 14 X_5_8
  <= 13
 mtz_5_9:
  + 1 U5 - 1 U9 + 14 X_5_9
  <= 13
 mtz_5_10:
  + 1 U5 - 1 U10 + 14 X_5_10
  <= 13
 mtz_5_11:
  + 1 U5 - 1 U11 + 14 X_5_11
  <= 13
 mtz_5_12:
  + 1 U5 - 1 U12 + 14 X_5_12
  <= 13
 mtz_5_13:
  + 1 U5 - 1 U13 + 14 X_5_13
  <= 13
 mtz_5_14:
  + 1 U5 - 1 U14 + 14 X_5_14
  <= 13
 mtz_6_1:
  + 1 U6 - 1 U1 + 14 X_6_1
  <= 13
 mtz_6_2:
  + 1 U6 - 1 U2 + 14 X_6_2
  <= 13
 mtz_6_3:
  + 1 U6 - 1 U3 + 14 X_6_3
  <= 13
 mtz_6_4:
  + 1 U6 - 1 U4 + 14 X_6_4
  <= 13
 mtz_6_5:
  + 1 U6 - 1 U5 + 14 X_6_5
  <= 13
 mtz_6_7:
  + 1 U6 - 1 U7 + 14 X_6_7
  <= 13
 mtz_6_8:
  + 1 U6 - 1 U8 + 14 X_6_8
  <= 13
 mtz_6_9:
  + 1 U6 - 1 U9 + 14 X_6_9
  <= 13
 mtz_6_10:
  + 1 U6 - 1 U10 + 14 X_6_10
  <= 13
 mtz_6_11:
  + 1 U6 - 1 U11 + 14 X_6_11
  <= 13
 mtz_6_12:
  + 1 U6 - 1 U12 + 14 X_6_12
  <= 13
 mtz_6_13:
  + 1 U6 - 1 U13 + 14 X_6_13
  <= 13
 mtz_6_14:
  + 1 U6 - 1 U14 + 14 X_6_14
  <= 13
 mtz_7_1:
  + 1 U7 - 1 U1 + 14 X_7_1
  <= 13
 mtz_7_2:
  + 1 U7 - 1 U2 + 14 X_7_2
  <= 13
 mtz_7_3:
  + 1 U7 - 1 U3 + 14 X_7_3
  <= 13
 mtz_7_4:
  + 1 U7 - 1 U4 + 14 X_7_4
  <= 13
 mtz_7_5:
  + 1 U7 - 1 U5 + 14 X_7_5
  <= 13
 mtz_7_6:
  + 1 U7 - 1 U6 + 14 X_7_6
  <= 13
 mtz_7_8:
  + 1 U7 - 1 U8 + 14 X_7_8
  <= 13
 mtz_7_9:
  + 1 U7 - 1 U9 + 14 X_7_9
  <= 13
 mtz_7_10:
  + 1 U7 - 1 U10 + 14 X_7_10
  <= 13
 mtz_7_11:
  + 1 U7 - 1 U11 + 14 X_7_11
  <= 13
 mtz_7_12:
  + 1 U7 - 1 U12 + 14 X_7_12
  <= 13
 mtz_7_13:
  + 1 U7 - 1 U13 + 14 X_7_13
  <= 13
 mtz_7_14:
  + 1 U7 - 1 U14 + 14 X_7_14
  <= 13
 mtz_8_1:
  + 1 U8 - 1 U1 + 14 X_8_1
  <= 13
 mtz_8_2:
  + 1 U8 - 1 U2 + 14 X_8_2
  <= 13
 mtz_8_3:
  + 1 U8 - 1 U3 + 14 X_8_3
  <= 13
 mtz_8_4:
  + 1 U8 - 1 U4 + 14 X_8_4
  <= 13
 mtz_8_5:
  + 1 U8 - 1 U5 + 14 X_8_5
  <= 13
 mtz_8_6:
  + 1 U8 - 1 U6 + 14 X_8_6
  <= 13
 mtz_8_7:
  + 1 U8 - 1 U7 + 14 X_8_7
  <= 13
 mtz_8_9:
  + 1 U8 - 1 U9 + 14 X_8_9
  <= 13
 mtz_8_10:
  + 1 U8 - 1 U10 + 14 X_8_10
  <= 13
 mtz_8_11:
  + 1 U8 - 1 U11 + 14 X_8_11
  <= 13
 mtz_8_12:
  + 1 U8 - 1 U12 + 14 X_8_12
  <= 13
 mtz_8_13:
  + 1 U8 - 1 U13 + 14 X_8_13
  <= 13
 mtz_8_14:
  + 1 U8 - 1 U14 + 14 X_8_14
  <= 13
 mtz_9_1:
  + 1 U9 - 1 U1 + 14 X_9_1
  <= 13
 mtz_9_2:
  + 1 U9 - 1 U2 + 14 X_9_2
  <= 13
 mtz_9_3:
  + 1 U9 - 1 U3 + 14 X_9_3
  <= 13
 mtz_9_4:
  + 1 U9 - 1 U4 + 14 X_9_4
  <= 13
 mtz_9_5:
  + 1 U9 - 1 U5 + 14 X_9_5
  <= 13
 mtz_9_6:
  + 1 U9 - 1 U6 + 14 X_9_6
  <= 13
 mtz_9_7:
  + 1 U9 - 1 U7 + 14 X_9_7
  <= 13
 mtz_9_8:
  + 1 U9 - 1 U8 + 14 X_9_8
  <= 13
 mtz_9_10:
  + 1 U9 - 1 U10 + 14 X_9_10
  <= 13
 mtz_9_11:
  + 1 U9 - 1 U11 + 14 X_9_11
  <= 13
 mtz_9_12:
  + 1 U9 - 1 U12 + 14 X_9_12
  <= 13
 mtz_9_13:
  + 1 U9 - 1 U13 + 14 X_9_13
  <= 13
 mtz_9_14:
  + 1 U9 - 1 U14 + 14 X_9_14
  <= 13
 mtz_10_1:
  + 1 U10 - 1 U1 + 14 X_10_1
  <= 13
 mtz_10_2:
  + 1 U10 - 1 U2 + 14 X_10_2
  <= 13
 mtz_10_3:
  + 1 U10 - 1 U3 + 14 X_10_3
  <= 13
 mtz_10_4:
  + 1 U10 - 1 U4 + 14 X_10_4
  <= 13
 mtz_10_5:
  + 1 U10 - 1 U5 + 14 X_10_5
  <= 13
 mtz_10_6:
  + 1 U10 - 1 U6 + 14 X_10_6
  <= 13
 mtz_10_7:
  + 1 U10 - 1 U7 + 14 X_10_7
  <= 13
 mtz_10_8:
  + 1 U10 - 1 U8 + 14 X_10_8
  <= 13
 mtz_10_9:
  + 1 U10 - 1 U9 + 14 X_10_9
  <= 13
 mtz_10_11:
  + 1 U10 - 1 U11 + 14 X_10_11
  <= 13
 mtz_10_12:
  + 1 U10 - 1 U12 + 14 X_10_12
  <= 13
 mtz_10_13:
  + 1 U10 - 1 U13 + 14 X_10_13
  <= 13
 mtz_10_14:
  + 1 U10 - 1 U14 + 14 X_10_14
  <= 13
 mtz_11_1:
  + 1 U11 - 1 U1 + 14 X_11_1
  <= 13
 mtz_11_2:
  + 1 U11 - 1 U2 + 14 X_11_2
  <= 13
 mtz_11_3:
  + 1 U11 - 1 U3 + 14 X_11_3
  <= 13
 mtz_11_4:
  + 1 U11 - 1 U4 + 14 X_11_4
  <= 13
 mtz_11_5:
  + 1 U11 - 1 U5 + 14 X_11_5
  <= 13
 mtz_11_6:
  + 1 U11 - 1 U6 + 14 X_11_6
  <= 13
 mtz_11_7:
  + 1 U11 - 1 U7 + 14 X_11_7
  <= 13
 mtz_11_8:
  + 1 U11 - 1 U8 + 14 X_11_8
  <= 13
 mtz_11_9:
  + 1 U11 - 1 U9 + 14 X_11_9
  <= 13
 mtz_11_10:
  + 1 U11 - 1 U10 + 14 X_11_10
  <= 13
 mtz_11_12:
  + 1 U11 - 1 U12 + 14 X_11_12
  <= 13
 mtz_11_13:
  + 1 U11 - 1 U13 + 14 X_11_13
  <= 13
 mtz_11_14:
  + 1 U11 - 1 U14 + 14 X_11_14
  <= 13
 mtz_12_1:
  + 1 U12 - 1 U1 + 14 X_12_1
  <= 13
 mtz_12_2:
  + 1 U12 - 1 U2 + 14 X_12_2
  <= 13
 mtz_12_3:
  + 1 U12 - 1 U3 + 14 X_12_3
  <= 13
 mtz_12_4:
  + 1 U12 - 1 U4 + 14 X_12_4
  <= 13
 mtz_12_5:
  + 1 U12 - 1 U5 + 14 X_12_5
  <= 13
 mtz_12_6:
  + 1 U12 - 1 U6 + 14 X_12_6
  <= 13
 mtz_12_7:
  + 1 U12 - 1 U7 + 14 X_12_7
  <= 13
 mtz_12_8:
  + 1 U12 - 1 U8 + 14 X_12_8
  <= 13
 mtz_12_9:
  + 1 U12 - 1 U9 + 14 X_12_9
  <= 13
 mtz_12_10:
  + 1 U12 - 1 U10 + 14 X_12_10
  <= 13
 mtz_12_11:
  + 1 U12 - 1 U11 + 14 X_12_11
  <= 13
 mtz_12_13:
  + 1 U12 - 1 U13 + 14 X_12_13
  <= 13
 mtz_12_14:
  + 1 U12 - 1 U14 + 14 X_12_14
  <= 13
 mtz_13_1:
  + 1 U13 - 1 U1 + 14 X_13_1
  <= 13
 mtz_13_2:
  + 1 U13 - 1 U2 + 14 X_13_2
  <= 13
 mtz_13_3:
  + 1 U13 - 1 U3 + 14 X_13_3
  <= 13
 mtz_13_4:
  + 1 U13 - 1 U4 + 14 X_13_4
  <= 13
 mtz_13_5:
  + 1 U13 - 1 U5 + 14 X_13_5
  <= 13
 mtz_13_6:
  + 1 U13 - 1 U6 + 14 X_13_6
  <= 13
 mtz_13_7:
  + 1 U13 - 1 U7 + 14 X_13_7
  <= 13
 mtz_13_8:
  + 1 U13 - 1 U8 + 14 X_13_8
  <= 13
 mtz_13_9:
  + 1 U13 - 1 U9 + 14 X_13_9
  <= 13
 mtz_13_10:
  + 1 U13 - 1 U10 + 14 X_13_10
  <= 13
 mtz_13_11:
  + 1 U13 - 1 U11 + 14 X_13_11
  <= 13
 mtz_13_12:
  + 1 U13 - 1 U12 + 14 X_13_12
  <= 13
 mtz_13_14:
  + 1 U13 - 1 U14 + 14 X_13_14
  <= 13
 mtz_14_1:
  + 1 U14 - 1 U1 + 14 X_14_1
  <= 13
 mtz_14_2:
  + 1 U14 - 1 U2 + 14 X_14_2
  <= 13
 mtz_14_3:
  + 1 U14 - 1 U3 + 14 X_14_3
  <= 13
 mtz_14_4:
  + 1 U14 - 1 U4 + 14 X_14_4
  <= 13
 mtz_14_5:
  + 1 U14 - 1 U5 + 14 X_14_5
  <= 13
 mtz_14_6:
  + 1 U14 - 1 U6 + 14 X_14_6
  <= 13
 mtz_14_7:
  + 1 U14 - 1 U7 + 14 X_14_7
  <= 13
 mtz_14_8:
  + 1 U14 - 1 U8 + 14 X_14_8
  <= 13
 mtz_14_9:
  + 1 U14 - 1 U9 + 14 X_14_9
  <= 13
 mtz_14_10:
  + 1 U14 - 1 U10 + 14 X_14_10
  <= 13
 mtz_14_11:
  + 1 U14 - 1 U11 + 14 X_14_11
  <= 13
 mtz_14_12:
  + 1 U14 - 1 U12 + 14 X_14_12
  <= 13
 mtz_14_13:
  + 1 U14 - 1 U13 + 14 X_14_13
  <= 13
 obj1:
  + 716 X_0_1 + 752 X_0_2 + 635 X_0_3 + 775 X_0_4 + 687 X_0_5 + 834 X_0_6 + 155 X_0_7 + 313 X_0_8
  + 334 X_0_9 + 339 X_0_10 + 507 X_0_11 + 506 X_0_12 + 248 X_0_13 + 210 X_0_14 + 716 X_1_0 + 53 X_1_2
  + 359 X_1_3 + 506 X_1_4 + 527 X_1_5 + 176 X_1_6 + 661 X_1_7 + 756 X_1_8 + 381 X_1_9 + 608 X_1_10
  + 610 X_1_11 + 576 X_1_12 + 521 X_1_13 + 921 X_1_14 + 752 X_2_0 + 53 X_2_1 + 411 X_2_3 + 477 X_2_4
  + 507 X_2_5 + 194 X_2_6 + 705 X_2_7 + 773 X_2_8 + 419 X_2_9 + 623 X_2_10 + 664 X_2_11 + 576 X_2_12
  + 548 X_2_13 + 955 X_2_14 + 635 X_3_0 + 359 X_3_1 + 411 X_3_2 + 812 X_3_4 + 797 X_3_5 + 325 X_3_6
  + 512 X_3_7 + 818 X_3_8 + 377 X_3_9 + 710 X_3_10 + 292 X_3_11 + 762 X_3_12 + 562 X_3_13 + 839 X_3_14
  + 775 X_4_0 + 506 X_4_1 + 477 X_4_2 + 812 X_4_3 + 106 X_4_5 + 671 X_4_6 + 823 X_4_7 + 599 X_4_8
  + 566 X_4_9 + 466 X_4_10 + 972 X_4_11 + 306 X_4_12 + 530 X_4_13 + 914 X_4_14 + 687 X_5_0 + 527 X_5_1
  + 507 X_5_2 + 797 X_5_3 + 106 X_5_4 + 700 X_5_6 + 748 X_5_7 + 494 X_5_8 + 511 X_5_9 + 366 X_5_10
  + 928 X_5_11 + 202 X_5_12 + 447 X_5_13 + 815 X_5_14 + 834 X_6_0 + 176 X_6_1 + 194 X_6_2 + 325 X_6_3
  + 671 X_6_4 + 700 X_6_5 + 753 X_6_7 + 915 X_6_8 + 505 X_6_9 + 772 X_6_10 + 614 X_6_11 + 751 X_6_12
  + 669 X_6_13 + 1044 X_6_14 + 155 X_7_0 + 661 X_7_1 + 705 X_7_2 + 512 X_7_3 + 823 X_7_4 + 748 X_7_5
  + 753 X_7_6 + 452 X_7_8 + 295 X_7_9 + 440 X_7_10 + 354 X_7_11 + 591 X_7_12 + 304 X_7_13 + 333 X_7_14
  + 313 X_8_0 + 756 X_8_1 + 773 X_8_2 + 818 X_8_3 + 599 X_8_4 + 494 X_8_5 + 915 X_8_6 + 452 X_8_7
  + 444 X_8_9 + 154 X_8_10 + 778 X_8_11 + 292 X_8_12 + 257 X_8_13 + 346 X_8_14 + 334 X_9_0 + 381 X_9_1
  + 419 X_9_2 + 377 X_9_3 + 566 X_9_4 + 511 X_9_5 + 505 X_9_6 + 295 X_9_7 + 444 X_9_8 + 334 X_9_10
  + 420 X_9_11 + 413 X_9_12 + 186 X_9_13 + 541 X_9_14 + 339 X_10_0 + 608 X_10_1 + 623 X_10_2 + 710 X_10_3
  + 466 X_10_4 + 366 X_10_5 + 772 X_10_6 + 440 X_10_7 + 154 X_10_8 + 334 X_10_9 + 720 X_10_11 + 170 X_10_12
  + 160 X_10_13 + 449 X_10_14 + 507 X_11_0 + 610 X_11_1 + 664 X_11_2 + 292 X_11_3 + 972 X_11_4 + 928 X_11_5
  + 614 X_11_6 + 354 X_11_7 + 778 X_11_8 + 420 X_11_9 + 720 X_11_10 + 830 X_11_12 + 560 X_11_13 + 678 X_11_14
  + 506 X_12_0 + 576 X_12_1 + 576 X_12_2 + 762 X_12_3 + 306 X_12_4 + 202 X_12_5 + 751 X_12_6 + 591 X_12_7
  + 292 X_12_8 + 413 X_12_9 + 170 X_12_10 + 830 X_12_11 + 289 X_12_13 + 617 X_12_14 + 248 X_13_0 + 521 X_13_1
  + 548 X_13_2 + 562 X_13_3 + 530 X_13_4 + 447 X_13_5 + 669 X_13_6 + 304 X_13_7 + 257 X_13_8 + 186 X_13_9
  + 160 X_13_10 + 560 X_13_11 + 289 X_13_12 + 421 X_13_14 + 210 X_14_0 + 921 X_14_1 + 955 X_14_2 + 839 X_14_3
  + 914 X_14_4 + 815 X_14_5 + 1044 X_14_6 + 333 X_14_7 + 346 X_14_8 + 541 X_14_9 + 449 X_14_10 + 678 X_14_11
  + 617 X_14_12 + 421 X_14_13
  <= 1
 obj2:
  + 459 X_0_1 + 253 X_0_2 + 407 X_0_3 + 292 X_0_4 + 379 X_0_5 + 249 X_0_6 + 48 X_0_7 + 383 X_0_8
  + 376 X_0_9 + 615 X_0_10 + 424 X_0_11 + 289 X_0_12 + 438 X_0_13 + 298 X_0_14 + 459 X_1_0 + 540 X_1_2
  + 865 X_1_3 + 613 X_1_4 + 548 X_1_5 + 224 X_1_6 + 413 X_1_7 + 493 X_1_8 + 259 X_1_9 + 1063 X_1_10
  + 163 X_1_11 + 184 X_1_12 + 893 X_1_13 + 648 X_1_14 + 253 X_2_0 + 540 X_2_1 + 439 X_2_3 + 536 X_2_4
  + 632 X_2_5 + 325 X_2_6 + 249 X_2_7 + 180 X_2_8 + 330 X_2_9 + 718 X_2_10 + 426 X_2_11 + 432 X_2_12
  + 535 X_2_13 + 114 X_2_14 + 407 X_3_0 + 865 X_3_1 + 439 X_3_2 + 454 X_3_4 + 626 X_3_5 + 647 X_3_6
  + 452 X_3_7 + 617 X_3_8 + 734 X_3_9 + 294 X_3_10 + 808 X_3_11 + 696 X_3_12 + 136 X_3_13 + 352 X_3_14
  + 292 X_4_0 + 613 X_4_1 + 536 X_4_2 + 454 X_4_3 + 174 X_4_5 + 471 X_4_6 + 320 X_4_7 + 676 X_4_8
  + 632 X_4_9 + 509 X_4_10 + 647 X_4_11 + 432 X_4_12 + 392 X_4_13 + 549 X_4_14 + 379 X_5_0 + 548 X_5_1
  + 632 X_5_2 + 626 X_5_3 + 174 X_5_4 + 469 X_5_6 + 386 X_5_7 + 740 X_5_8 + 638 X_5_9 + 674 X_5_10
  + 624 X_5_11 + 388 X_5_12 + 566 X_5_13 + 670 X_5_14 + 249 X_6_0 + 224 X_6_1 + 325 X_6_2 + 647 X_6_3
  + 471 X_6_4 + 469 X_6_5 + 201 X_6_7 + 327 X_6_8 + 169 X_6_9 + 865 X_6_10 + 180 X_6_11 + 121 X_6_12
  + 688 X_6_13 + 429 X_6_14 + 48 X_7_0 + 413 X_7_1 + 249 X_7_2 + 452 X_7_3 + 320 X_7_4 + 386 X_7_5
  + 201 X_7_6 + 359 X_7_8 + 331 X_7_9 + 664 X_7_10 + 377 X_7_11 + 247 X_7_12 + 486 X_7_13 + 311 X_7_14
  + 383 X_8_0 + 493 X_8_1 + 180 X_8_2 + 617 X_8_3 + 676 X_8_4 + 740 X_8_5 + 327 X_8_6 + 359 X_8_7
  + 238 X_8_9 + 899 X_8_10 + 344 X_8_11 + 448 X_8_12 + 715 X_8_13 + 273 X_8_14 + 376 X_9_0 + 259 X_9_1
  + 330 X_9_2 + 734 X_9_3 + 632 X_9_4 + 638 X_9_5 + 169 X_9_6 + 331 X_9_7 + 238 X_9_8 + 982 X_9_10
  + 106 X_9_11 + 271 X_9_12 + 799 X_9_13 + 444 X_9_14 + 615 X_10_0 + 1063 X_10_1 + 718 X_10_2 + 294 X_10_3
  + 509 X_10_4 + 674 X_10_5 + 865 X_10_6 + 664 X_10_7 + 899 X_10_8 + 982 X_10_9 + 1040 X_10_11 + 881 X_10_12
  + 184 X_10_13 + 643 X_10_14 + 424 X_11_0 + 163 X_11_1 + 426 X_11_2 + 808 X_11_3 + 647 X_11_4 + 624 X_11_5
  + 180 X_11_6 + 377 X_11_7 + 344 X_11_8 + 106 X_11_9 + 1040 X_11_10 + 237 X_11_12 + 860 X_11_13 + 540 X_11_14
  + 289 X_12_0 + 184 X_12_1 + 432 X_12_2 + 696 X_12_3 + 432 X_12_4 + 388 X_12_5 + 121 X_12_6 + 247 X_12_7
  + 448 X_12_8 + 271 X_12_9 + 881 X_12_10 + 237 X_12_11 + 714 X_12_13 + 527 X_12_14 + 438 X_13_0 + 893 X_13_1
  + 535 X_13_2 + 136 X_13_3 + 392 X_13_4 + 566 X_13_5 + 688 X_13_6 + 486 X_13_7 + 715 X_13_8 + 799 X_13_9
  + 184 X_13_10 + 860 X_13_11 + 714 X_13_12 + 465 X_13_14 + 298 X_14_0 + 648 X_14_1 + 114 X_14_2 + 352 X_14_3
  + 549 X_14_4 + 670 X_14_5 + 429 X_14_6 + 311 X_14_7 + 273 X_14_8 + 444 X_14_9 + 643 X_14_10 + 540 X_14_11
  + 527 X_14_12 + 465 X_14_13
  <= 2
 obj3:
  + 160 X_0_1 + 242 X_0_2 + 861 X_0_3 + 1091 X_0_4 + 260 X_0_5 + 253 X_0_6 + 949 X_0_7 + 702 X_0_8
  + 738 X_0_9 + 488 X_0_10 + 684 X_0_11 + 456 X_0_12 + 737 X_0_13 + 523 X_0_14 + 160 X_1_0 + 352 X_1_2
  + 843 X_1_3 + 1072 X_1_4 + 392 X_1_5 + 380 X_1_6 + 894 X_1_7 + 738 X_1_8 + 746 X_1_9 + 594 X_1_10
  + 719 X_1_11 + 507 X_1_12 + 840 X_1_13 + 470 X_1_14 + 242 X_2_0 + 352 X_2_1 + 700 X_2_3 + 924 X_2_4
  + 67 X_2_5 + 49 X_2_6 + 836 X_2_7 + 490 X_2_8 + 554 X_2_9 + 247 X_2_10 + 475 X_2_11 + 246 X_2_12
  + 496 X_2_13 + 446 X_2_14 + 861 X_3_0 + 843 X_3_1 + 700 X_3_2 + 230 X_3_4 + 751 X_3_5 + 738 X_3_6
  + 227 X_3_7 + 293 X_3_8 + 168 X_3_9 + 628 X_3_10 + 294 X_3_11 + 465 X_3_12 + 645 X_3_13 + 386 X_3_14
  + 1091 X_4_0 + 1072 X_4_1 + 924 X_4_2 + 230 X_4_3 + 971 X_4_5 + 959 X_4_6 + 284 X_4_7 + 472 X_4_8
  + 372 X_4_9 + 824 X_4_10 + 480 X_4_11 + 682 X_4_12 + 788 X_4_13 + 609 X_4_14 + 260 X_5_0 + 392 X_5_1
  + 67 X_5_2 + 751 X_5_3 + 971 X_5_4 + 18 X_5_6 + 896 X_5_7 + 525 X_5_8 + 599 X_5_9 + 237 X_5_10
  + 510 X_5_11 + 289 X_5_12 + 482 X_5_13 + 513 X_5_14 + 253 X_6_0 + 380 X_6_1 + 49 X_6_2 + 738 X_6_3
  + 959 X_6_4 + 18 X_6_5 + 881 X_6_7 + 516 X_6_8 + 588 X_6_9 + 239 X_6_10 + 501 X_6_11 + 277 X_6_12
  + 486 X_6_13 + 495 X_6_14 + 949 X_7_0 + 894 X_7_1 + 836 X_7_2 + 227 X_7_3 + 284 X_7_4 + 896 X_7_5
  + 881 X_7_6 + 508 X_7_8 + 378 X_7_9 + 816 X_7_10 + 505 X_7_11 + 628 X_7_12 + 865 X_7_13 + 427 X_7_14
  + 702 X_8_0 + 738 X_8_1 + 490 X_8_2 + 293 X_8_3 + 472 X_8_4 + 525 X_8_5 + 516 X_8_6 + 508 X_8_7
  + 130 X_8_9 + 352 X_8_10 + 19 X_8_11 + 247 X_8_12 + 357 X_8_13 + 401 X_8_14 + 738 X_9_0 + 746 X_9_1
  + 554 X_9_2 + 168 X_9_3 + 372 X_9_4 + 599 X_9_5 + 588 X_9_6 + 378 X_9_7 + 130 X_9_8 + 461 X_9_10
  + 127 X_9_11 + 310 X_9_12 + 487 X_9_13 + 340 X_9_14 + 488 X_10_0 + 594 X_10_1 + 247 X_10_2 + 628 X_10_3
  + 824 X_10_4 + 237 X_10_5 + 239 X_10_6 + 816 X_10_7 + 352 X_10_8 + 461 X_10_9 + 344 X_10_11 + 205 X_10_12
  + 249 X_10_13 + 522 X_10_14 + 684 X_11_0 + 719 X_11_1 + 475 X_11_2 + 294 X_11_3 + 480 X_11_4 + 510 X_11_5
  + 501 X_11_6 + 505 X_11_7 + 19 X_11_8 + 127 X_11_9 + 344 X_11_10 + 230 X_11_12 + 362 X_11_13 + 383 X_11_14
  + 456 X_12_0 + 507 X_12_1 + 246 X_12_2 + 465 X_12_3 + 682 X_12_4 + 289 X_12_5 + 277 X_12_6 + 628 X_12_7
  + 247 X_12_8 + 310 X_12_9 + 205 X_12_10 + 230 X_12_11 + 382 X_12_13 + 319 X_12_14 + 737 X_13_0 + 840 X_13_1
  + 496 X_13_2 + 645 X_13_3 + 788 X_13_4 + 482 X_13_5 + 486 X_13_6 + 865 X_13_7 + 357 X_13_8 + 487 X_13_9
  + 249 X_13_10 + 362 X_13_11 + 382 X_13_12 + 683 X_13_14 + 523 X_14_0 + 470 X_14_1 + 446 X_14_2 + 386 X_14_3
  + 609 X_14_4 + 513 X_14_5 + 495 X_14_6 + 427 X_14_7 + 401 X_14_8 + 340 X_14_9 + 522 X_14_10 + 383 X_14_11
  + 319 X_14_12 + 683 X_14_13
  <= 3
 obj4:
  + 185 X_0_1 + 855 X_0_2 + 871 X_0_3 + 1009 X_0_4 + 785 X_0_5 + 213 X_0_6 + 783 X_0_7 + 668 X_0_8
  + 181 X_0_9 + 354 X_0_10 + 722 X_0_11 + 374 X_0_12 + 665 X_0_13 + 296 X_0_14 + 185 X_1_0 + 676 X_1_2
  + 714 X_1_3 + 838 X_1_4 + 599 X_1_5 + 52 X_1_6 + 754 X_1_7 + 485 X_1_8 + 23 X_1_9 + 231 X_1_10
  + 557 X_1_11 + 213 X_1_12 + 667 X_1_13 + 405 X_1_14 + 855 X_2_0 + 676 X_2_1 + 242 X_2_3 + 195 X_2_4
  + 160 X_2_5 + 669 X_2_6 + 836 X_2_7 + 332 X_2_8 + 688 X_2_9 + 546 X_2_10 + 197 X_2_11 + 588 X_2_12
  + 884 X_2_13 + 950 X_2_14 + 871 X_3_0 + 714 X_3_1 + 242 X_3_2 + 198 X_3_4 + 384 X_3_5 + 726 X_3_6
  + 639 X_3_7 + 525 X_3_8 + 732 X_3_9 + 521 X_3_10 + 166 X_3_11 + 698 X_3_12 + 718 X_3_13 + 887 X_3_14
  + 1009 X_4_0 + 838 X_4_1 + 195 X_4_2 + 198 X_4_3 + 352 X_4_5 + 838 X_4_6 + 835 X_4_7 + 527 X_4_8
  + 853 X_4_9 + 674 X_4_10 + 290 X_4_11 + 774 X_4_12 + 916 X_4_13 + 1062 X_4_14 + 785 X_5_0 + 599 X_5_1
  + 160 X_5_2 + 384 X_5_3 + 352 X_5_4 + 582 X_5_6 + 913 X_5_7 + 179 X_5_8 + 607 X_5_9 + 524 X_5_10
  + 277 X_5_11 + 472 X_5_12 + 935 X_5_13 + 927 X_5_14 + 213 X_6_0 + 52 X_6_1 + 669 X_6_2 + 726 X_6_3
  + 838 X_6_4 + 582 X_6_5 + 800 X_6_7 + 456 X_6_8 + 36 X_6_9 + 266 X_6_10 + 564 X_6_11 + 166 X_6_12
  + 717 X_6_13 + 453 X_6_14 + 783 X_7_0 + 754 X_7_1 + 836 X_7_2 + 639 X_7_3 + 835 X_7_4 + 913 X_7_5
  + 800 X_7_6 + 957 X_7_8 + 777 X_7_9 + 550 X_7_10 + 645 X_7_11 + 902 X_7_12 + 160 X_7_13 + 581 X_7_14
  + 668 X_8_0 + 485 X_8_1 + 332 X_8_2 + 525 X_8_3 + 527 X_8_4 + 179 X_8_5 + 456 X_8_6 + 957 X_8_7
  + 487 X_8_9 + 480 X_8_10 + 382 X_8_11 + 318 X_8_12 + 949 X_8_13 + 857 X_8_14 + 181 X_9_0 + 23 X_9_1
  + 688 X_9_2 + 732 X_9_3 + 853 X_9_4 + 607 X_9_5 + 36 X_9_6 + 777 X_9_7 + 487 X_9_8 + 254 X_9_10
  + 574 X_9_11 + 203 X_9_12 + 689 X_9_13 + 417 X_9_14 + 354 X_10_0 + 231 X_10_1 + 546 X_10_2 + 521 X_10_3
  + 674 X_10_4 + 524 X_10_5 + 266 X_10_6 + 550 X_10_7 + 480 X_10_8 + 254 X_10_9 + 383 X_10_11 + 352 X_10_12
  + 495 X_10_13 + 406 X_10_14 + 722 X_11_0 + 557 X_11_1 + 197 X_11_2 + 166 X_11_3 + 290 X_11_4 + 277 X_11_5
  + 564 X_11_6 + 645 X_11_7 + 382 X_11_8 + 574 X_11_9 + 383 X_11_10 + 531 X_11_12 + 687 X_11_13 + 776 X_11_14
  + 374 X_12_0 + 213 X_12_1 + 588 X_12_2 + 698 X_12_3 + 774 X_12_4 + 472 X_12_5 + 166 X_12_6 + 902 X_12_7
  + 318 X_12_8 + 203 X_12_9 + 352 X_12_10 + 531 X_12_11 + 841 X_12_13 + 618 X_12_14 + 665 X_13_0 + 667 X_13_1
  + 884 X_13_2 + 718 X_13_3 + 916 X_13_4 + 935 X_13_5 + 717 X_13_6 + 160 X_13_7 + 949 X_13_8 + 689 X_13_9
  + 495 X_13_10 + 687 X_13_11 + 841 X_13_12 + 434 X_13_14 + 296 X_14_0 + 405 X_14_1 + 950 X_14_2 + 887 X_14_3
  + 1062 X_14_4 + 927 X_14_5 + 453 X_14_6 + 581 X_14_7 + 857 X_14_8 + 417 X_14_9 + 406 X_14_10 + 776 X_14_11
  + 618 X_14_12 + 434 X_14_13
  <= 4
 obj5:
  + 1074 X_0_1 + 552 X_0_2 + 834 X_0_3 + 715 X_0_4 + 670 X_0_5 + 909 X_0_6 + 154 X_0_7 + 34 X_0_8
  + 995 X_0_9 + 611 X_0_10 + 721 X_0_11 + 780 X_0_12 + 726 X_0_13 + 881 X_0_14 + 1074 X_1_0 + 712 X_1_2
  + 255 X_1_3 + 364 X_1_4 + 729 X_1_5 + 170 X_1_6 + 1222 X_1_7 + 1041 X_1_8 + 82 X_1_9 + 963 X_1_10
  + 375 X_1_11 + 392 X_1_12 + 508 X_1_13 + 393 X_1_14 + 552 X_2_0 + 712 X_2_1 + 463 X_2_3 + 465 X_2_4
  + 780 X_2_5 + 548 X_2_6 + 700 X_2_7 + 522 X_2_8 + 653 X_2_9 + 889 X_2_10 + 511 X_2_11 + 629 X_2_12
  + 665 X_2_13 + 742 X_2_14 + 834 X_3_0 + 255 X_3_1 + 463 X_3_2 + 171 X_3_4 + 620 X_3_5 + 85 X_3_6
  + 985 X_3_7 + 800 X_3_8 + 190 X_3_9 + 829 X_3_10 + 214 X_3_11 + 306 X_3_12 + 410 X_3_13 + 381 X_3_14
  + 715 X_4_0 + 364 X_4_1 + 465 X_4_2 + 171 X_4_3 + 453 X_4_5 + 214 X_4_6 + 860 X_4_7 + 682 X_4_8
  + 282 X_4_9 + 658 X_4_10 + 55 X_4_11 + 174 X_4_12 + 254 X_4_13 + 281 X_4_14 + 670 X_5_0 + 729 X_5_1
  + 780 X_5_2 + 620 X_5_3 + 453 X_5_4 + 636 X_5_6 + 760 X_5_7 + 651 X_5_8 + 655 X_5_9 + 239 X_5_10
  + 406 X_5_11 + 339 X_5_12 + 222 X_5_13 + 357 X_5_14 + 909 X_6_0 + 170 X_6_1 + 548 X_6_2 + 85 X_6_3
  + 214 X_6_4 + 636 X_6_5 + 1059 X_6_7 + 875 X_6_8 + 104 X_6_9 + 858 X_6_10 + 241 X_6_11 + 303 X_6_12
  + 417 X_6_13 + 354 X_6_14 + 154 X_7_0 + 1222 X_7_1 + 700 X_7_2 + 985 X_7_3 + 860 X_7_4 + 760 X_7_5
  + 1059 X_7_6 + 188 X_7_8 + 1142 X_7_9 + 654 X_7_10 + 862 X_7_11 + 912 X_7_12 + 847 X_7_13 + 1007 X_7_14
  + 34 X_8_0 + 1041 X_8_1 + 522 X_8_2 + 800 X_8_3 + 682 X_8_4 + 651 X_8_5 + 875 X_8_6 + 188 X_8_7
  + 962 X_8_9 + 603 X_8_10 + 689 X_8_11 + 750 X_8_12 + 699 X_8_13 + 852 X_8_14 + 995 X_9_0 + 82 X_9_1
  + 653 X_9_2 + 190 X_9_3 + 282 X_9_4 + 655 X_9_5 + 104 X_9_6 + 1142 X_9_7 + 962 X_9_8 + 886 X_9_10
  + 292 X_9_11 + 316 X_9_12 + 433 X_9_13 + 331 X_9_14 + 611 X_10_0 + 963 X_10_1 + 889 X_10_2 + 829 X_10_3
  + 658 X_10_4 + 239 X_10_5 + 858 X_10_6 + 654 X_10_7 + 603 X_10_8 + 886 X_10_9 + 618 X_10_11 + 571 X_10_12
  + 455 X_10_13 + 597 X_10_14 + 721 X_11_0 + 375 X_11_1 + 511 X_11_2 + 214 X_11_3 + 55 X_11_4 + 406 X_11_5
  + 241 X_11_6 + 862 X_11_7 + 689 X_11_8 + 292 X_11_9 + 618 X_11_10 + 120 X_11_12 + 200 X_11_13 + 231 X_11_14
  + 780 X_12_0 + 392 X_12_1 + 629 X_12_2 + 306 X_12_3 + 174 X_12_4 + 339 X_12_5 + 303 X_12_6 + 912 X_12_7
  + 750 X_12_8 + 316 X_12_9 + 571 X_12_10 + 120 X_12_11 + 117 X_12_13 + 116 X_12_14 + 726 X_13_0 + 508 X_13_1
  + 665 X_13_2 + 410 X_13_3 + 254 X_13_4 + 222 X_13_5 + 417 X_13_6 + 847 X_13_7 + 699 X_13_8 + 433 X_13_9
  + 455 X_13_10 + 200 X_13_11 + 117 X_13_12 + 164 X_13_14 + 881 X_14_0 + 393 X_14_1 + 742 X_14_2 + 381 X_14_3
  + 281 X_14_4 + 357 X_14_5 + 354 X_14_6 + 1007 X_14_7 + 852 X_14_8 + 331 X_14_9 + 597 X_14_10 + 231 X_14_11
  + 116 X_14_12 + 164 X_14_13
  <= 5
 obj6:
  + 626 X_0_1 + 580 X_0_2 + 581 X_0_3 + 789 X_0_4 + 360 X_0_5 + 362 X_0_6 + 523 X_0_7 + 219 X_0_8
  + 194 X_0_9 + 41 X_0_10 + 471 X_0_11 + 915 X_0_12 + 262 X_0_13 + 245 X_0_14 + 626 X_1_0 + 631 X_1_2
  + 698 X_1_3 + 809 X_1_4 + 757 X_1_5 + 315 X_1_6 + 104 X_1_7 + 774 X_1_8 + 431 X_1_9 + 667 X_1_10
  + 570 X_1_11 + 768 X_1_12 + 851 X_1_13 + 809 X_1_14 + 580 X_2_0 + 631 X_2_1 + 76 X_2_3 + 219 X_2_4
  + 344 X_2_5 + 394 X_2_6 + 562 X_2_7 + 798 X_2_8 + 518 X_2_9 + 603 X_2_10 + 111 X_2_11 + 345 X_2_12
  + 595 X_2_13 + 821 X_2_14 + 581 X_3_0 + 698 X_3_1 + 76 X_3_2 + 208 X_3_4 + 302 X_3_5 + 442 X_3_6
  + 624 X_3_7 + 795 X_3_8 + 545 X_3_9 + 599 X_3_10 + 142 X_3_11 + 380 X_3_12 + 562 X_3_13 + 815 X_3_14
  + 789 X_4_0 + 809 X_4_1 + 219 X_4_2 + 208 X_4_3 + 499 X_4_5 + 607 X_4_6 + 755 X_4_7 + 1003 X_4_8
  + 738 X_4_9 + 807 X_4_10 + 329 X_4_11 + 224 X_4_12 + 762 X_4_13 + 1023 X_4_14 + 360 X_5_0 + 757 X_5_1
  + 344 X_5_2 + 302 X_5_3 + 499 X_5_4 + 442 X_5_6 + 658 X_5_7 + 543 X_5_8 + 426 X_5_9 + 360 X_5_10
  + 277 X_5_11 + 682 X_5_12 + 262 X_5_13 + 555 X_5_14 + 362 X_6_0 + 315 X_6_1 + 394 X_6_2 + 442 X_6_3
  + 607 X_6_4 + 442 X_6_5 + 215 X_6_7 + 559 X_6_8 + 191 X_6_9 + 402 X_6_10 + 300 X_6_11 + 652 X_6_12
  + 549 X_6_13 + 591 X_6_14 + 523 X_7_0 + 104 X_7_1 + 562 X_7_2 + 624 X_7_3 + 755 X_7_4 + 658 X_7_5
  + 215 X_7_6 + 679 X_7_8 + 328 X_7_9 + 564 X_7_10 + 489 X_7_11 + 741 X_7_12 + 746 X_7_13 + 714 X_7_14
  + 219 X_8_0 + 774 X_8_1 + 798 X_8_2 + 795 X_8_3 + 1003 X_8_4 + 543 X_8_5 + 559 X_8_6 + 679 X_8_7
  + 370 X_8_9 + 196 X_8_10 + 690 X_8_11 + 1134 X_8_12 + 346 X_8_13 + 35 X_8_14 + 194 X_9_0 + 431 X_9_1
  + 518 X_9_2 + 545 X_9_3 + 738 X_9_4 + 426 X_9_5 + 191 X_9_6 + 328 X_9_7 + 370 X_9_8 + 236 X_9_10
  + 409 X_9_11 + 819 X_9_12 + 433 X_9_13 + 403 X_9_14 + 41 X_10_0 + 667 X_10_1 + 603 X_10_2 + 599 X_10_3
  + 807 X_10_4 + 360 X_10_5 + 402 X_10_6 + 564 X_10_7 + 196 X_10_8 + 236 X_10_9 + 495 X_10_11 + 940 X_10_12
  + 232 X_10_13 + 218 X_10_14 + 471 X_11_0 + 570 X_11_1 + 111 X_11_2 + 142 X_11_3 + 329 X_11_4 + 277 X_11_5
  + 300 X_11_6 + 489 X_11_7 + 690 X_11_8 + 409 X_11_9 + 495 X_11_10 + 446 X_11_12 + 508 X_11_13 + 713 X_11_14
  + 915 X_12_0 + 768 X_12_1 + 345 X_12_2 + 380 X_12_3 + 224 X_12_4 + 682 X_12_5 + 652 X_12_6 + 741 X_12_7
  + 1134 X_12_8 + 819 X_12_9 + 940 X_12_10 + 446 X_12_11 + 939 X_12_13 + 1159 X_12_14 + 262 X_13_0 + 851 X_13_1
  + 595 X_13_2 + 562 X_13_3 + 762 X_13_4 + 262 X_13_5 + 549 X_13_6 + 746 X_13_7 + 346 X_13_8 + 433 X_13_9
  + 232 X_13_10 + 508 X_13_11 + 939 X_13_12 + 345 X_13_14 + 245 X_14_0 + 809 X_14_1 + 821 X_14_2 + 815 X_14_3
  + 1023 X_14_4 + 555 X_14_5 + 591 X_14_6 + 714 X_14_7 + 35 X_14_8 + 403 X_14_9 + 218 X_14_10 + 713 X_14_11
  + 1159 X_14_12 + 345 X_14_13
  <= 6
Bounds
 1 <= U1 <= 14
 1 <= U2 <= 14
 1 <= U3 <= 14
 1 <= U4 <= 14
 1 <= U5 <= 14
 1 <= U6 <= 14
 1 <= U7 <= 14
 1 <= U8 <= 14
 1 <= U9 <= 14
 1 <= U10 <= 14
 1 <= U11 <= 14
 1 <= U12 <= 14
 1 <= U13 <= 14
 1 <= U14 <= 14
Binary
 X_0_1
 X_0_2
 X_0_3
 X_0_4
 X_0_5
 X_0_6
 X_0_7
 X_0_8
 X_0_9
 X_0_10
 X_0_11
 X_0_12
 X_0_13
 X_0_14
 X_1_0
 X_1_2
 X_1_3
 X_1_4
 X_1_5
 X_1_6
 X_1_7
 X_1_8
 X_1_9
 X_1_10
 X_1_11
 X_1_12
 X_1_13
 X_1_14
 X_2_0
 X_2_1
 X_2_3
 X_2_4
 X_2_5
 X_2_6
 X_2_7
 X_2_8
 X_2_9
 X_2_10
 X_2_11
 X_2_12
 X_2_13
 X_2_14
 X_3_0
 X_3_1
 X_3_2
 X_3_4
 X_3_5
 X_3_6
 X_3_7
 X_3_8
 X_3_9
 X_3_10
 X_3_11
 X_3_12
 X_3_13
 X_3_14
 X_4_0
 X_4_1
 X_4_2
 X_4_3
 X_4_5
 X_4_6
 X_4_7
 X_4_8
 X_4_9
 X_4_10
 X_4_11
 X_4_12
 X_4_13
 X_4_14
 X_5_0
 X_5_1
 X_5_2
 X_5_3
 X_5_4
 X_5_6
 X_5_7
 X_5_8
 X_5_9
 X_5_10
 X_5_11
 X_5_12
 X_5_13
 X_5_14
 X_6_0
 X_6_1
 X_6_2
 X_6_3
 X_6_4
 X_6_5
 X_6_7
 X_6_8
 X_6_9
 X_6_10
 X_6_11
 X_6_12
 X_6_13
 X_6_14
 X_7_0
 X_7_1
 X_7_2
 X_7_3
 X_7_4
 X_7_5
 X_7_6
 X_7_8
 X_7_9
 X_7_10
 X_7_11
 X_7_12
 X_7_13
 X_7_14
 X_8_0
 X_8_1
 X_8_2
 X_8_3
 X_8_4
 X_8_5
 X_8_6
 X_8_7
 X_8_9
 X_8_10
 X_8_11
 X_8_12
 X_8_13
 X_8_14
 X_9_0
 X_9_1
 X_9_2
 X_9_3
 X_9_4
 X_9_5
 X_9_6
 X_9_7
 X_9_8
 X_9_10
 X_9_11
 X_9_12
 X_9_13
 X_9_14
 X_10_0
 X_10_1
 X_10_2
 X_10_3
 X_10_4
 X_10_5
 X_10_6
 X_10_7
 X_10_8
 X_10_9
 X_10_11
 X_10_12
 X_10_13
 X_10_14
 X_11_0
 X_11_1
 X_11_2
 X_11_3
 X_11_4
 X_11_5
 X_11_6
 X_11_7
 X_11_8
 X_11_9
 X_11_10
 X_11_12
 X_11_13
 X_11_14
 X_12_0
 X_12_1
 X_12_2
 X_12_3
 X_12_4
 X_12_5
 X_12_6
 X_12_7
 X_12_8
 X_12_9
 X_12_10
 X_12_11
 X_12_13
 X_12_14
 X_13_0
 X_13_1
 X_13_2
 X_13_3
 X_13_4
 X_13_5
 X_13_6
 X_13_7
 X_13_8
 X_13_9
 X_13_10
 X_13_11
 X_13_12
 X_13_14
 X_14_0
 X_14_1
 X_14_2
 X_14_3
 X_14_4
 X_14_5
 X_14_6
 X_14_7
 X_14_8
 X_14_9
 X_14_10
 X_14_11
 X_14_12
 X_14_13
End
